CONTCAR
1.0
       22.0000000000         0.0000000000         0.0000000000
      -11.0000000000        19.0525588833         0.0000000000
        0.0000000000         0.0000000000        26.7950992584
   Pt    C    H
  192  166    8
Diect
     0.000069976         0.000340000         0.260829991
     0.000169993         0.125640002         0.261159995
     0.000149999         0.250629991         0.261299993
     0.000120033         0.375640003         0.261700005
     0.000149994         0.500499999         0.261390004
     0.000089986         0.625460005         0.261629997
     0.000059947         0.750329963         0.261290010
     0.000030059         0.875350035         0.261139992
     0.125259999         0.000570000         0.261139992
     0.125219992         0.125630004         0.261139992
     0.125279990         0.250800003         0.261460012
     0.125200003         0.375779981         0.261960000
     0.125130020         0.500680047         0.262199992
     0.125219978         0.625609970         0.262140003
     0.125200011         0.750529982         0.261909994
     0.125149988         0.875430023         0.261429991
     0.250230000         0.000460000         0.261260006
     0.250270020         0.125640002         0.261229985
     0.250219998         0.250679996         0.261310012
     0.250189983         0.375820000         0.262030008
     0.250130016         0.500800028         0.262389979
     0.250140019         0.625740012         0.262459987
     0.250160006         0.750630042         0.262320006
     0.250250045         0.875600009         0.261999987
     0.375270004         0.000630000         0.261609994
     0.375190009         0.125560002         0.261180015
     0.375189998         0.250640002         0.261249987
     0.375149977         0.375690007         0.261770013
     0.375050034         0.500710029         0.262249998
     0.375070012         0.625730001         0.262470006
     0.375050045         0.750650014         0.262450004
     0.375219968         0.875659975         0.262149986
     0.500170024         0.000560000         0.261460012
     0.500130000         0.125550004         0.260939987
     0.500069974         0.250440008         0.260650006
     0.500040020         0.375600009         0.261029997
     0.499969995         0.500559965         0.261720007
     0.499920004         0.625609970         0.262230014
     0.499959994         0.750630042         0.262340009
     0.499999996         0.875649964         0.262190009
     0.625079961         0.000600000         0.261680002
     0.625109988         0.125530007         0.261080003
     0.625150007         0.250539993         0.260320003
     0.625000027         0.375510010         0.260340005
     0.624920010         0.500469966         0.261130009
     0.624820001         0.625379967         0.261720007
     0.624809948         0.750469966         0.261949981
     0.624910012         0.875520021         0.261889991
     0.749939967         0.000440000         0.261260006
     0.750080019         0.125550004         0.261210001
     0.750109920         0.250319976         0.260670008
     0.750150009         0.375480002         0.260300018
     0.749979963         0.500370006         0.260670008
     0.749799991         0.625299980         0.261229985
     0.749799963         0.750240014         0.261280009
     0.749759955         0.875330013         0.261379985
     0.874969967         0.000500000         0.261110007
     0.875039964         0.125550004         0.261240004
     0.875159924         0.250589998         0.261269990
     0.875140029         0.375530007         0.260960007
     0.875129932         0.500549954         0.260960007
     0.874969979         0.625429972         0.261210001
     0.874849996         0.750289969         0.261240004
     0.874859981         0.875340024         0.261130009
     0.083329998         0.041669998         0.172729995
     0.083329996         0.166669995         0.172900015
     0.083329996         0.291669996         0.172989990
     0.083330013         0.416669996         0.173359998
     0.083330004         0.541670021         0.173169993
     0.083330004         0.666670021         0.173350014
     0.083330004         0.791670021         0.172989990
     0.083330007         0.916670071         0.172900015
     0.208330014         0.041669998         0.172859992
     0.208330002         0.166669995         0.172859992
     0.208330002         0.291669996         0.172999991
     0.208330013         0.416669996         0.173309992
     0.208330004         0.541670021         0.173460009
     0.208330004         0.666670021         0.173390001
     0.208330004         0.791670021         0.173280006
     0.208330029         0.916670071         0.172989990
     0.333330014         0.041669998         0.172900015
     0.333330013         0.166669995         0.172900015
     0.333330013         0.291669996         0.172960004
     0.333330013         0.416669996         0.173380000
     0.333330004         0.541670021         0.173460009
     0.333330004         0.666670021         0.173410004
     0.333330004         0.791670021         0.173420005
     0.333330029         0.916670071         0.173359998
     0.458330014         0.041669998         0.172900015
     0.458330013         0.166669995         0.172670006
     0.458330013         0.291669996         0.172719994
     0.458330034         0.416669996         0.172970005
     0.458330025         0.541670021         0.173280006
     0.458330025         0.666670021         0.173439989
     0.458330025         0.791670021         0.173439989
     0.458330050         0.916670071         0.173169993
     0.583329971         0.041669998         0.172930001
     0.583329969         0.166669995         0.172670006
     0.583329969         0.291669996         0.172449998
     0.583329969         0.416669996         0.172680007
     0.583329982         0.541670021         0.172989990
     0.583329982         0.666670021         0.173359998
     0.583329982         0.791670021         0.173260004
     0.583330007         0.916670071         0.173350014
     0.708329971         0.041669998         0.172930001
     0.708329969         0.166669995         0.172690008
     0.708329969         0.291669996         0.172449998
     0.708329969         0.416669996         0.172449998
     0.708329982         0.541670021         0.172719994
     0.708329982         0.666670021         0.172940002
     0.708329982         0.791670021         0.172989990
     0.708330007         0.916670071         0.172979989
     0.833329971         0.041669998         0.172840008
     0.833329969         0.166669995         0.172900015
     0.833329969         0.291669996         0.172719994
     0.833329969         0.416669996         0.172630001
     0.833329982         0.541670021         0.172710010
     0.833329982         0.666670021         0.172900015
     0.833329982         0.791670021         0.172849991
     0.833330007         0.916670071         0.172900015
     0.958329971         0.041669998         0.172739996
     0.958329969         0.166669995         0.172869993
     0.958329969         0.291669996         0.172960004
     0.958329969         0.416669996         0.172900015
     0.958329982         0.541670021         0.172900015
     0.958329982         0.666670021         0.172930001
     0.958329982         0.791670021         0.172879995
     0.958330007         0.916670071         0.172729995
     0.041669998         0.083329998         0.084530004
     0.041669998         0.208330005         0.084530004
     0.041669998         0.333330005         0.084530004
     0.041670000         0.458330030         0.084530004
     0.041669997         0.583329980         0.084530004
     0.041669997         0.708329980         0.084530004
     0.041670019         0.833329980         0.084530004
     0.041670019         0.958329980         0.084530004
     0.166669995         0.083329998         0.084530004
     0.166669998         0.208330005         0.084530004
     0.166669998         0.333330005         0.084530004
     0.166670000         0.458330030         0.084530004
     0.166669997         0.583329980         0.084530004
     0.166669997         0.708329980         0.084530004
     0.166669997         0.833329980         0.084530004
     0.166669997         0.958329980         0.084530004
     0.291670006         0.083329998         0.084530004
     0.291669988         0.208330005         0.084530004
     0.291669998         0.333330005         0.084530004
     0.291670000         0.458330030         0.084530004
     0.291669997         0.583329980         0.084530004
     0.291669997         0.708329980         0.084530004
     0.291669997         0.833329980         0.084530004
     0.291669997         0.958329980         0.084530004
     0.416669984         0.083329998         0.084530004
     0.416669988         0.208330005         0.084530004
     0.416669988         0.333330005         0.084530004
     0.416669978         0.458330030         0.084530004
     0.416669975         0.583329980         0.084530004
     0.416669975         0.708329980         0.084530004
     0.416669975         0.833329980         0.084530004
     0.416669975         0.958329980         0.084530004
     0.541670028         0.083329998         0.084530004
     0.541670031         0.208330005         0.084530004
     0.541670031         0.333330005         0.084530004
     0.541670022         0.458330030         0.084530004
     0.541670019         0.583329980         0.084530004
     0.541670019         0.708329980         0.084530004
     0.541670019         0.833329980         0.084530004
     0.541670019         0.958329980         0.084530004
     0.666670028         0.083329998         0.084530004
     0.666670031         0.208330005         0.084530004
     0.666670031         0.333330005         0.084530004
     0.666670044         0.458330030         0.084530004
     0.666670019         0.583329980         0.084530004
     0.666670019         0.708329980         0.084530004
     0.666670019         0.833329980         0.084530004
     0.666670019         0.958329980         0.084530004
     0.791670028         0.083329998         0.084530004
     0.791670031         0.208330005         0.084530004
     0.791670031         0.333330005         0.084530004
     0.791670044         0.458330030         0.084530004
     0.791670019         0.583329980         0.084530004
     0.791670019         0.708329980         0.084530004
     0.791670019         0.833329980         0.084530004
     0.791670019         0.958329980         0.084530004
     0.916670028         0.083329998         0.084530004
     0.916670031         0.208330005         0.084530004
     0.916670031         0.333330005         0.084530004
     0.916670044         0.458330030         0.084530004
     0.916670019         0.583329980         0.084530004
     0.916670019         0.708329980         0.084530004
     0.916670019         0.833329980         0.084530004
     0.916670019         0.958329980         0.084530004
     0.999530034         0.998950049         0.376119998
     0.073619998         0.035999999         0.376599983
     0.110599996         0.998940038         0.376750001
     0.184729988         0.035990001         0.377420009
     0.221670003         0.998920016         0.378080015
     0.295840007         0.035999999         0.378260001
     0.332789986         0.998940038         0.379079990
     0.406970001         0.036039999         0.378410018
     0.443950025         0.998950049         0.379369989
     0.518089979         0.036049998         0.378399981
     0.555120013         0.998950049         0.379439997
     0.629190031         0.036039999         0.378549999
     0.666260050         0.998930027         0.379079990
     0.740270012         0.035999999         0.378270002
     0.777360033         0.998910005         0.377939999
     0.851360094         0.035990001         0.377309996
     0.888440070         0.998930027         0.376619986
     0.962489999         0.035999999         0.376540012
     0.999549966         0.110039998         0.376709996
     0.073629994         0.147149991         0.377270027
     0.110600003         0.110039998         0.376740000
     0.184739992         0.147129994         0.377440011
     0.221649997         0.110010003         0.377259990
     0.295830017         0.147109997         0.377420009
     0.332729990         0.110000005         0.377440011
     0.406930019         0.147109997         0.376389994
     0.443880009         0.110010003         0.376709996
     0.518049997         0.147119995         0.374970005
     0.555060055         0.110010003         0.376399995
     0.629189988         0.147119995         0.375449991
     0.666249983         0.110010003         0.377110008
     0.740299996         0.147129994         0.376830010
     0.777380004         0.110010003         0.377629998
     0.851389977         0.147109997         0.377559989
     0.888479999         0.110020002         0.377259990
     0.962499999         0.147129994         0.377430010
     0.999579988         0.221139985         0.378170026
     0.073629998         0.258260013         0.378890003
     0.110630008         0.221149996         0.378159989
     0.184740002         0.258260013         0.378890003
     0.221679986         0.221139985         0.378149988
     0.295840008         0.258240016         0.378430020
     0.332729977         0.221129999         0.377569991
     0.406930019         0.258230005         0.376619986
     0.443849992         0.221139985         0.375509998
     0.518000003         0.258219994         0.373289986
     0.555000004         0.221110002         0.373180009
     0.629169984         0.258210008         0.372059984
     0.666230016         0.221129999         0.373820013
     0.740339978         0.258240016         0.373939991
     0.777410003         0.221149996         0.376060027
     0.851419974         0.258240016         0.376850013
     0.888509998         0.221129999         0.377730009
     0.962520041         0.258240016         0.378469990
     0.999600001         0.332260006         0.379300016
     0.073619994         0.369360012         0.380380001
     0.110659999         0.332269992         0.380049997
     0.184740000         0.369370023         0.380800014
     0.221729993         0.332269992         0.380039996
     0.295859986         0.369360012         0.380409968
     0.332789987         0.332260006         0.379330019
     0.406960025         0.369340015         0.378880002
     0.443879989         0.332289989         0.377209984
     0.518050035         0.369340015         0.375759991
     0.555000003         0.332309986         0.373770007
     0.629159959         0.369349976         0.372469996
     0.666230050         0.332319997         0.371939970
     0.740339971         0.369370023         0.371829992
     0.777439971         0.332329983         0.373460006
     0.851450051         0.369370023         0.375059980
     0.888540001         0.332300000         0.377040000
     0.962520024         0.369349976         0.378630008
     0.999620047         0.443430032         0.379439997
     0.073610010         0.480470022         0.380990001
     0.110679992         0.443419971         0.381360009
     0.184729991         0.480479983         0.382270009
     0.221770006         0.443410010         0.381910002
     0.295870008         0.480470022         0.382299977
     0.332859995         0.443410010         0.381449984
     0.406990017         0.480460011         0.381259997
     0.443940030         0.443419971         0.379909981
     0.518069977         0.480430028         0.379070025
     0.555060033         0.443450004         0.377160014
     0.629179966         0.480439989         0.376079993
     0.666220020         0.443500009         0.374199986
     0.740330004         0.480489994         0.373829978
     0.777439982         0.443529991         0.373120002
     0.851470016         0.480500005         0.374480019
     0.888580067         0.443500009         0.375889971
     0.962519981         0.480450000         0.378190028
     0.999620020         0.554589997         0.379280014
     0.073609998         0.591570021         0.380919993
     0.110689998         0.554570025         0.381709979
     0.184729998         0.591600004         0.382749994
     0.221790012         0.554560014         0.382970020
     0.295859997         0.591600004         0.383369996
     0.332899985         0.554550003         0.382999988
     0.407000033         0.591589993         0.382820003
     0.444009999         0.554560014         0.381950007
     0.518089985         0.591560010         0.381259997
     0.555100009         0.554560014         0.379970024
     0.629169989         0.591520016         0.379029984
     0.666230021         0.554600008         0.377530021
     0.740279977         0.591539988         0.377009996
     0.777400000         0.554650012         0.375920010
     0.851419966         0.591560010         0.376549978
     0.888540014         0.554640001         0.376529975
     0.962520012         0.591549999         0.378340010
     0.999590003         0.665719979         0.379160000
     0.073610004         0.702669970         0.380339996
     0.110679993         0.665709968         0.381300002
     0.184729979         0.702719975         0.382230004
     0.221779999         0.665700007         0.382939981
     0.295859976         0.702739997         0.383329991
     0.332899986         0.665689996         0.383509977
     0.406989997         0.702739997         0.383300023
     0.444039999         0.665689996         0.382939981
     0.518100042         0.702700003         0.382190000
     0.555149992         0.665689996         0.381390012
     0.629179984         0.702649998         0.380359998
     0.666240003         0.665679985         0.379379990
     0.740260009         0.702620015         0.378509994
     0.777369929         0.665719979         0.377779980
     0.851380011         0.702629976         0.377629998
     0.888499947         0.665740000         0.377609995
     0.962509986         0.702649998         0.378399981
     0.999559996         0.776799956         0.378179991
     0.073610018         0.813760008         0.378919971
     0.110649984         0.776799956         0.380039996
     0.184729994         0.813810013         0.380780012
     0.221760022         0.776820028         0.381859997
     0.295869996         0.813860018         0.382190000
     0.332899991         0.776820028         0.382889975
     0.407000015         0.813880040         0.382649983
     0.444029988         0.776809967         0.382840005
     0.518100064         0.813850007         0.382070021
     0.555159989         0.776799956         0.381720016
     0.629180011         0.813780030         0.380599991
     0.666249963         0.776769973         0.379889979
     0.740249980         0.813740036         0.378749987
     0.777349988         0.776780034         0.378100017
     0.851349981         0.813719964         0.377449977
     0.888459973         0.776799956         0.377350000
     0.962490018         0.813730025         0.377510019
     0.999529994         0.887869972         0.376770003
     0.073619994         0.924859957         0.377309996
     0.110619961         0.887859961         0.378170026
     0.184729964         0.924879979         0.378860000
     0.221719984         0.887869972         0.379979989
     0.295859971         0.924929934         0.380250021
     0.332859992         0.887900005         0.381239995
     0.406990030         0.924969978         0.380870023
     0.444009997         0.887900005         0.381620004
     0.518100067         0.924969978         0.380859986
     0.555149947         0.887879983         0.381150020
     0.629190025         0.924920023         0.380130007
     0.666260010         0.887849950         0.379790002
     0.740259993         0.924869968         0.378650011
     0.777339986         0.887839939         0.377950000
     0.851350005         0.924849946         0.377150012
     0.888440007         0.887859961         0.376679993
     0.962480003         0.924859957         0.376590018
     0.449649995         0.702210015         0.506810017
     0.471769999         0.770070021         0.498270010
     0.243949995         0.592840015         0.496690003
     0.266009962         0.660139956         0.507380013
     0.520900029         0.803730003         0.478639981
     0.441489995         0.794659952         0.510110014
     0.400469991         0.668179978         0.526260025
     0.479770007         0.677759989         0.494439987
     0.315760005         0.693430032         0.526400042
     0.235209989         0.684869990         0.497390014
     0.194190001         0.559889962         0.477549995
     0.274869998         0.568019982         0.506179979
